60
80.0 211.0 
130.0 222.0 
120.0 179.0 
80.0 211.0 
130.0 222.0 
120.0 179.0 
80.0 211.0 
130.0 222.0 
120.0 179.0 
80.0 211.0 
130.0 222.0 
120.0 179.0 
80.0 211.0 
130.0 222.0 
120.0 179.0 
80.0 211.0 
130.0 222.0 
120.0 179.0 
80.0 211.0 
130.0 222.0 
120.0 179.0 
80.0 211.0 
130.0 222.0 
120.0 179.0 
80.0 211.0 
130.0 222.0 
120.0 179.0 
80.0 211.0 
130.0 222.0 
120.0 179.0 
80.0 211.0 
130.0 222.0 
120.0 179.0 
80.0 211.0 
130.0 222.0 
120.0 179.0 
80.0 211.0 
130.0 222.0 
120.0 179.0 
80.0 211.0 
130.0 222.0 
120.0 179.0 
80.0 211.0 
130.0 222.0 
120.0 179.0 
80.0 211.0 
130.0 222.0 
120.0 179.0 
80.0 211.0 
130.0 222.0 
120.0 179.0 
80.0 211.0 
130.0 222.0 
120.0 179.0 
80.0 211.0 
130.0 222.0 
120.0 179.0 
80.0 211.0 
130.0 222.0 
120.0 179.0 

0 23 22 26 13 27 31 32 
0 23 21 6 4 26 22 31 32 
0 23 21 6 4 26 22 32 
0 23 22 26 13 27 31 32 
0 23 21 6 4 26 22 31 32 
0 23 21 6 4 26 22 32 
0 23 22 26 13 27 31 32 
0 23 21 6 4 26 22 31 32 
0 23 21 6 4 26 22 32 
0 23 22 26 13 27 31 32 
0 23 21 6 4 26 22 31 32 
0 23 21 6 4 26 22 32 
0 23 22 26 13 27 31 32 
0 23 21 6 4 26 22 31 32 
0 23 21 6 4 26 22 32 
0 23 22 26 13 27 31 32 
0 23 21 6 4 26 22 31 32 
0 23 21 6 4 26 22 32 
0 23 22 26 13 27 31 32 
0 23 21 6 4 26 22 31 32 
0 23 21 6 4 26 22 32 
0 23 22 26 13 27 31 32 
0 23 21 6 4 26 22 31 32 
0 23 21 6 4 26 22 32 
0 23 22 26 13 27 31 32 
0 23 21 6 4 26 22 31 32 
0 23 21 6 4 26 22 32 
0 23 22 26 13 27 31 32 
0 23 21 6 4 26 22 31 32 
0 23 21 6 4 26 22 32 
0 23 22 26 13 27 31 32 
0 23 21 6 4 26 22 31 32 
0 23 21 6 4 26 22 32 
0 23 22 26 13 27 31 32 
0 23 21 6 4 26 22 31 32 
0 23 21 6 4 26 22 32 
0 23 22 26 13 27 31 32 
0 23 21 6 4 26 22 31 32 
0 23 21 6 4 26 22 32 
0 23 22 26 13 27 31 32 
0 23 21 6 4 26 22 31 32 
0 23 21 6 4 26 22 32 
0 23 22 26 13 27 31 32 
0 23 21 6 4 26 22 31 32 
0 23 21 6 4 26 22 32 
0 23 22 26 13 27 31 32 
0 23 21 6 4 26 22 31 32 
0 23 21 6 4 26 22 32 
0 23 22 26 13 27 31 32 
0 23 21 6 4 26 22 31 32 
0 23 21 6 4 26 22 32 
0 23 22 26 13 27 31 32 
0 23 21 6 4 26 22 31 32 
0 23 21 6 4 26 22 32 
0 23 22 26 13 27 31 32 
0 23 21 6 4 26 22 31 32 
0 23 21 6 4 26 22 32 
0 23 22 26 13 27 31 32 
0 23 21 6 4 26 22 31 32 
0 23 21 6 4 26 22 32 
